p edge 96 117
v 1 2
v 2 3
v 3 4
v 4 5
v 5 6
v 6 7
v 7 8
v 8 9
v 9 10
v 10 11
v 11 12
v 12 13
v 13 14
v 14 15
v 15 16
v 16 17
v 17 18
v 18 19
v 19 20
v 20 21
v 21 22
v 22 23
v 23 24
v 24 25
v 25 26
v 26 27
v 27 28
v 28 29
v 29 30
v 30 31
v 31 32
v 32 33
v 33 34
v 34 35
v 35 36
v 36 37
v 37 38
v 38 39
v 39 40
v 40 41
v 41 42
v 42 43
v 43 44
v 44 45
v 45 46
v 46 47
v 47 48
v 48 49
v 49 50
v 50 51
v 51 52
v 52 53
v 53 54
v 54 55
v 55 56
v 56 57
v 57 58
v 58 59
v 59 60
v 60 61
v 61 62
v 62 63
v 63 64
v 64 65
v 65 66
v 66 67
v 67 68
v 68 69
v 69 70
v 70 71
v 71 72
v 72 73
v 73 74
v 74 75
v 75 76
v 76 77
v 77 78
v 78 79
v 79 80
v 80 81
v 81 82
v 82 83
v 83 84
v 84 85
v 85 86
v 86 87
v 87 88
v 88 89
v 89 90
v 90 91
v 91 92
v 92 93
v 93 94
v 94 95
v 95 96
v 96 97
e 6 1
e 8 1
e 54 1
e 76 1
e 85 1
e 56 2
e 75 3
e 19 4
e 16 5
e 17 5
e 20 5
e 40 5
e 93 5
e 8 6
e 45 6
e 54 6
e 89 6
e 61 7
e 28 8
e 38 8
e 39 8
e 42 8
e 54 8
e 72 8
e 54 9
e 89 9
e 95 9
e 54 10
e 45 11
e 56 11
e 94 11
e 15 12
e 24 13
e 75 13
e 41 14
e 50 14
e 21 15
e 33 15
e 93 15
e 84 18
e 54 19
e 96 21
e 53 22
e 65 22
e 68 22
e 51 23
e 28 25
e 89 26
e 53 27
e 32 28
e 78 28
e 93 28
e 54 29
e 68 29
e 72 29
e 64 30
e 45 31
e 55 31
e 58 31
e 93 34
e 45 35
e 54 36
e 54 37
e 54 38
e 50 39
e 59 40
e 93 40
e 66 41
e 81 41
e 88 41
e 45 43
e 74 43
e 72 44
e 56 45
e 58 45
e 74 45
e 75 45
e 79 45
e 83 45
e 89 46
e 54 47
e 73 48
e 87 48
e 93 48
e 70 49
e 77 50
e 54 51
e 56 51
e 72 51
e 74 51
e 56 52
e 57 53
e 64 53
e 70 53
e 61 54
e 67 54
e 89 54
e 92 54
e 93 54
e 72 56
e 80 56
e 90 56
e 74 60
e 72 61
e 95 61
e 72 62
e 95 63
e 81 64
e 89 64
e 91 65
e 75 66
e 72 69
e 79 71
e 93 72
e 89 82
e 89 84
e 89 86
